** u_bend_path: 0.5 mm plies, U-clamp tip, circular-arc U poses
** L=100.0 W=20.0 t_ply=0.5 nLen=32 nWid=2
*NODE, NSET=all_nodes
1, 0.00000000, 0.00000000, 0.00000000
2, 20.00000000, 0.00000000, 0.00000000
3, 20.00000000, 100.00000000, 0.00000000
4, 0.00000000, 100.00000000, 0.00000000
5, 10.00000000, 0.00000000, 0.00000000
6, 5.00000000, 0.00000000, 0.00000000
7, 15.00000000, 0.00000000, 0.00000000
8, 20.00000000, 3.12500000, 0.00000000
9, 20.00000000, 6.25000000, 0.00000000
10, 20.00000000, 9.37500000, 0.00000000
11, 20.00000000, 12.50000000, 0.00000000
12, 20.00000000, 15.62500000, 0.00000000
13, 20.00000000, 18.75000000, 0.00000000
14, 20.00000000, 21.87500000, 0.00000000
15, 20.00000000, 25.00000000, 0.00000000
16, 20.00000000, 28.12500000, 0.00000000
17, 20.00000000, 31.25000000, 0.00000000
18, 20.00000000, 34.37500000, 0.00000000
19, 20.00000000, 37.50000000, 0.00000000
20, 20.00000000, 40.62500000, 0.00000000
21, 20.00000000, 43.75000000, 0.00000000
22, 20.00000000, 46.87500000, 0.00000000
23, 20.00000000, 50.00000000, 0.00000000
24, 20.00000000, 53.12500000, 0.00000000
25, 20.00000000, 56.25000000, 0.00000000
26, 20.00000000, 59.37500000, 0.00000000
27, 20.00000000, 62.50000000, 0.00000000
28, 20.00000000, 65.62500000, 0.00000000
29, 20.00000000, 68.75000000, 0.00000000
30, 20.00000000, 71.87500000, 0.00000000
31, 20.00000000, 75.00000000, 0.00000000
32, 20.00000000, 78.12500000, 0.00000000
33, 20.00000000, 81.25000000, 0.00000000
34, 20.00000000, 84.37500000, 0.00000000
35, 20.00000000, 87.50000000, 0.00000000
36, 20.00000000, 90.62500000, 0.00000000
37, 20.00000000, 93.75000000, 0.00000000
38, 20.00000000, 96.87500000, 0.00000000
39, 20.00000000, 1.56250000, 0.00000000
40, 20.00000000, 4.68750000, 0.00000000
41, 20.00000000, 7.81250000, 0.00000000
42, 20.00000000, 10.93750000, 0.00000000
43, 20.00000000, 14.06250000, 0.00000000
44, 20.00000000, 17.18750000, 0.00000000
45, 20.00000000, 20.31250000, 0.00000000
46, 20.00000000, 23.43750000, 0.00000000
47, 20.00000000, 26.56250000, 0.00000000
48, 20.00000000, 29.68750000, 0.00000000
49, 20.00000000, 32.81250000, 0.00000000
50, 20.00000000, 35.93750000, 0.00000000
51, 20.00000000, 39.06250000, 0.00000000
52, 20.00000000, 42.18750000, 0.00000000
53, 20.00000000, 45.31250000, 0.00000000
54, 20.00000000, 48.43750000, 0.00000000
55, 20.00000000, 51.56250000, 0.00000000
56, 20.00000000, 54.68750000, 0.00000000
57, 20.00000000, 57.81250000, 0.00000000
58, 20.00000000, 60.93750000, 0.00000000
59, 20.00000000, 64.06250000, 0.00000000
60, 20.00000000, 67.18750000, 0.00000000
61, 20.00000000, 70.31250000, 0.00000000
62, 20.00000000, 73.43750000, 0.00000000
63, 20.00000000, 76.56250000, 0.00000000
64, 20.00000000, 79.68750000, 0.00000000
65, 20.00000000, 82.81250000, 0.00000000
66, 20.00000000, 85.93750000, 0.00000000
67, 20.00000000, 89.06250000, 0.00000000
68, 20.00000000, 92.18750000, 0.00000000
69, 20.00000000, 95.31250000, 0.00000000
70, 20.00000000, 98.43750000, 0.00000000
71, 10.00000000, 100.00000000, 0.00000000
72, 15.00000000, 100.00000000, 0.00000000
73, 5.00000000, 100.00000000, 0.00000000
74, 0.00000000, 96.87500000, 0.00000000
75, 0.00000000, 93.75000000, 0.00000000
76, 0.00000000, 90.62500000, 0.00000000
77, 0.00000000, 87.50000000, 0.00000000
78, 0.00000000, 84.37500000, 0.00000000
79, 0.00000000, 81.25000000, 0.00000000
80, 0.00000000, 78.12500000, 0.00000000
81, 0.00000000, 75.00000000, 0.00000000
82, 0.00000000, 71.87500000, 0.00000000
83, 0.00000000, 68.75000000, 0.00000000
84, 0.00000000, 65.62500000, 0.00000000
85, 0.00000000, 62.50000000, 0.00000000
86, 0.00000000, 59.37500000, 0.00000000
87, 0.00000000, 56.25000000, 0.00000000
88, 0.00000000, 53.12500000, 0.00000000
89, 0.00000000, 50.00000000, 0.00000000
90, 0.00000000, 46.87500000, 0.00000000
91, 0.00000000, 43.75000000, 0.00000000
92, 0.00000000, 40.62500000, 0.00000000
93, 0.00000000, 37.50000000, 0.00000000
94, 0.00000000, 34.37500000, 0.00000000
95, 0.00000000, 31.25000000, 0.00000000
96, 0.00000000, 28.12500000, 0.00000000
97, 0.00000000, 25.00000000, 0.00000000
98, 0.00000000, 21.87500000, 0.00000000
99, 0.00000000, 18.75000000, 0.00000000
100, 0.00000000, 15.62500000, 0.00000000
101, 0.00000000, 12.50000000, 0.00000000
102, 0.00000000, 9.37500000, 0.00000000
103, 0.00000000, 6.25000000, 0.00000000
104, 0.00000000, 3.12500000, 0.00000000
105, 0.00000000, 98.43750000, 0.00000000
106, 0.00000000, 95.31250000, 0.00000000
107, 0.00000000, 92.18750000, 0.00000000
108, 0.00000000, 89.06250000, 0.00000000
109, 0.00000000, 85.93750000, 0.00000000
110, 0.00000000, 82.81250000, 0.00000000
111, 0.00000000, 79.68750000, 0.00000000
112, 0.00000000, 76.56250000, 0.00000000
113, 0.00000000, 73.43750000, 0.00000000
114, 0.00000000, 70.31250000, 0.00000000
115, 0.00000000, 67.18750000, 0.00000000
116, 0.00000000, 64.06250000, 0.00000000
117, 0.00000000, 60.93750000, 0.00000000
118, 0.00000000, 57.81250000, 0.00000000
119, 0.00000000, 54.68750000, 0.00000000
120, 0.00000000, 51.56250000, 0.00000000
121, 0.00000000, 48.43750000, 0.00000000
122, 0.00000000, 45.31250000, 0.00000000
123, 0.00000000, 42.18750000, 0.00000000
124, 0.00000000, 39.06250000, 0.00000000
125, 0.00000000, 35.93750000, 0.00000000
126, 0.00000000, 32.81250000, 0.00000000
127, 0.00000000, 29.68750000, 0.00000000
128, 0.00000000, 26.56250000, 0.00000000
129, 0.00000000, 23.43750000, 0.00000000
130, 0.00000000, 20.31250000, 0.00000000
131, 0.00000000, 17.18750000, 0.00000000
132, 0.00000000, 14.06250000, 0.00000000
133, 0.00000000, 10.93750000, 0.00000000
134, 0.00000000, 7.81250000, 0.00000000
135, 0.00000000, 4.68750000, 0.00000000
136, 0.00000000, 1.56250000, 0.00000000
137, 10.00000000, 3.12500000, 0.00000000
138, 10.00000000, 6.25000000, 0.00000000
139, 10.00000000, 9.37500000, 0.00000000
140, 10.00000000, 12.50000000, 0.00000000
141, 10.00000000, 15.62500000, 0.00000000
142, 10.00000000, 18.75000000, 0.00000000
143, 10.00000000, 21.87500000, 0.00000000
144, 10.00000000, 25.00000000, 0.00000000
145, 10.00000000, 28.12500000, 0.00000000
146, 10.00000000, 31.25000000, 0.00000000
147, 10.00000000, 34.37500000, 0.00000000
148, 10.00000000, 37.50000000, 0.00000000
149, 10.00000000, 40.62500000, 0.00000000
150, 10.00000000, 43.75000000, 0.00000000
151, 10.00000000, 46.87500000, 0.00000000
152, 10.00000000, 50.00000000, 0.00000000
153, 10.00000000, 53.12500000, 0.00000000
154, 10.00000000, 56.25000000, 0.00000000
155, 10.00000000, 59.37500000, 0.00000000
156, 10.00000000, 62.50000000, 0.00000000
157, 10.00000000, 65.62500000, 0.00000000
158, 10.00000000, 68.75000000, 0.00000000
159, 10.00000000, 71.87500000, 0.00000000
160, 10.00000000, 75.00000000, 0.00000000
161, 10.00000000, 78.12500000, 0.00000000
162, 10.00000000, 81.25000000, 0.00000000
163, 10.00000000, 84.37500000, 0.00000000
164, 10.00000000, 87.50000000, 0.00000000
165, 10.00000000, 90.62500000, 0.00000000
166, 10.00000000, 93.75000000, 0.00000000
167, 10.00000000, 96.87500000, 0.00000000
168, 10.00000000, 1.56250000, 0.00000000
169, 5.00000000, 3.12500000, 0.00000000
170, 10.00000000, 4.68750000, 0.00000000
171, 5.00000000, 6.25000000, 0.00000000
172, 10.00000000, 7.81250000, 0.00000000
173, 5.00000000, 9.37500000, 0.00000000
174, 10.00000000, 10.93750000, 0.00000000
175, 5.00000000, 12.50000000, 0.00000000
176, 10.00000000, 14.06250000, 0.00000000
177, 5.00000000, 15.62500000, 0.00000000
178, 10.00000000, 17.18750000, 0.00000000
179, 5.00000000, 18.75000000, 0.00000000
180, 10.00000000, 20.31250000, 0.00000000
181, 5.00000000, 21.87500000, 0.00000000
182, 10.00000000, 23.43750000, 0.00000000
183, 5.00000000, 25.00000000, 0.00000000
184, 10.00000000, 26.56250000, 0.00000000
185, 5.00000000, 28.12500000, 0.00000000
186, 10.00000000, 29.68750000, 0.00000000
187, 5.00000000, 31.25000000, 0.00000000
188, 10.00000000, 32.81250000, 0.00000000
189, 5.00000000, 34.37500000, 0.00000000
190, 10.00000000, 35.93750000, 0.00000000
191, 5.00000000, 37.50000000, 0.00000000
192, 10.00000000, 39.06250000, 0.00000000
193, 5.00000000, 40.62500000, 0.00000000
194, 10.00000000, 42.18750000, 0.00000000
195, 5.00000000, 43.75000000, 0.00000000
196, 10.00000000, 45.31250000, 0.00000000
197, 5.00000000, 46.87500000, 0.00000000
198, 10.00000000, 48.43750000, 0.00000000
199, 5.00000000, 50.00000000, 0.00000000
200, 10.00000000, 51.56250000, 0.00000000
201, 5.00000000, 53.12500000, 0.00000000
202, 10.00000000, 54.68750000, 0.00000000
203, 5.00000000, 56.25000000, 0.00000000
204, 10.00000000, 57.81250000, 0.00000000
205, 5.00000000, 59.37500000, 0.00000000
206, 10.00000000, 60.93750000, 0.00000000
207, 5.00000000, 62.50000000, 0.00000000
208, 10.00000000, 64.06250000, 0.00000000
209, 5.00000000, 65.62500000, 0.00000000
210, 10.00000000, 67.18750000, 0.00000000
211, 5.00000000, 68.75000000, 0.00000000
212, 10.00000000, 70.31250000, 0.00000000
213, 5.00000000, 71.87500000, 0.00000000
214, 10.00000000, 73.43750000, 0.00000000
215, 5.00000000, 75.00000000, 0.00000000
216, 10.00000000, 76.56250000, 0.00000000
217, 5.00000000, 78.12500000, 0.00000000
218, 10.00000000, 79.68750000, 0.00000000
219, 5.00000000, 81.25000000, 0.00000000
220, 10.00000000, 82.81250000, 0.00000000
221, 5.00000000, 84.37500000, 0.00000000
222, 10.00000000, 85.93750000, 0.00000000
223, 5.00000000, 87.50000000, 0.00000000
224, 10.00000000, 89.06250000, 0.00000000
225, 5.00000000, 90.62500000, 0.00000000
226, 10.00000000, 92.18750000, 0.00000000
227, 5.00000000, 93.75000000, 0.00000000
228, 10.00000000, 95.31250000, 0.00000000
229, 5.00000000, 96.87500000, 0.00000000
230, 10.00000000, 98.43750000, 0.00000000
231, 15.00000000, 3.12500000, 0.00000000
232, 15.00000000, 6.25000000, 0.00000000
233, 15.00000000, 9.37500000, 0.00000000
234, 15.00000000, 12.50000000, 0.00000000
235, 15.00000000, 15.62500000, 0.00000000
236, 15.00000000, 18.75000000, 0.00000000
237, 15.00000000, 21.87500000, 0.00000000
238, 15.00000000, 25.00000000, 0.00000000
239, 15.00000000, 28.12500000, 0.00000000
240, 15.00000000, 31.25000000, 0.00000000
241, 15.00000000, 34.37500000, 0.00000000
242, 15.00000000, 37.50000000, 0.00000000
243, 15.00000000, 40.62500000, 0.00000000
244, 15.00000000, 43.75000000, 0.00000000
245, 15.00000000, 46.87500000, 0.00000000
246, 15.00000000, 50.00000000, 0.00000000
247, 15.00000000, 53.12500000, 0.00000000
248, 15.00000000, 56.25000000, 0.00000000
249, 15.00000000, 59.37500000, 0.00000000
250, 15.00000000, 62.50000000, 0.00000000
251, 15.00000000, 65.62500000, 0.00000000
252, 15.00000000, 68.75000000, 0.00000000
253, 15.00000000, 71.87500000, 0.00000000
254, 15.00000000, 75.00000000, 0.00000000
255, 15.00000000, 78.12500000, 0.00000000
256, 15.00000000, 81.25000000, 0.00000000
257, 15.00000000, 84.37500000, 0.00000000
258, 15.00000000, 87.50000000, 0.00000000
259, 15.00000000, 90.62500000, 0.00000000
260, 15.00000000, 93.75000000, 0.00000000
261, 15.00000000, 96.87500000, 0.00000000
*ELEMENT, TYPE=S8R, ELSET=blade
5, 1, 5, 137, 104, 6, 168, 169, 136
6, 104, 137, 138, 103, 169, 170, 171, 135
7, 103, 138, 139, 102, 171, 172, 173, 134
8, 102, 139, 140, 101, 173, 174, 175, 133
9, 101, 140, 141, 100, 175, 176, 177, 132
10, 100, 141, 142, 99, 177, 178, 179, 131
11, 99, 142, 143, 98, 179, 180, 181, 130
12, 98, 143, 144, 97, 181, 182, 183, 129
13, 97, 144, 145, 96, 183, 184, 185, 128
14, 96, 145, 146, 95, 185, 186, 187, 127
15, 95, 146, 147, 94, 187, 188, 189, 126
16, 94, 147, 148, 93, 189, 190, 191, 125
17, 93, 148, 149, 92, 191, 192, 193, 124
18, 92, 149, 150, 91, 193, 194, 195, 123
19, 91, 150, 151, 90, 195, 196, 197, 122
20, 90, 151, 152, 89, 197, 198, 199, 121
21, 89, 152, 153, 88, 199, 200, 201, 120
22, 88, 153, 154, 87, 201, 202, 203, 119
23, 87, 154, 155, 86, 203, 204, 205, 118
24, 86, 155, 156, 85, 205, 206, 207, 117
25, 85, 156, 157, 84, 207, 208, 209, 116
26, 84, 157, 158, 83, 209, 210, 211, 115
27, 83, 158, 159, 82, 211, 212, 213, 114
28, 82, 159, 160, 81, 213, 214, 215, 113
29, 81, 160, 161, 80, 215, 216, 217, 112
30, 80, 161, 162, 79, 217, 218, 219, 111
31, 79, 162, 163, 78, 219, 220, 221, 110
32, 78, 163, 164, 77, 221, 222, 223, 109
33, 77, 164, 165, 76, 223, 224, 225, 108
34, 76, 165, 166, 75, 225, 226, 227, 107
35, 75, 166, 167, 74, 227, 228, 229, 106
36, 74, 167, 71, 4, 229, 230, 73, 105
37, 5, 2, 8, 137, 7, 39, 231, 168
38, 137, 8, 9, 138, 231, 40, 232, 170
39, 138, 9, 10, 139, 232, 41, 233, 172
40, 139, 10, 11, 140, 233, 42, 234, 174
41, 140, 11, 12, 141, 234, 43, 235, 176
42, 141, 12, 13, 142, 235, 44, 236, 178
43, 142, 13, 14, 143, 236, 45, 237, 180
44, 143, 14, 15, 144, 237, 46, 238, 182
45, 144, 15, 16, 145, 238, 47, 239, 184
46, 145, 16, 17, 146, 239, 48, 240, 186
47, 146, 17, 18, 147, 240, 49, 241, 188
48, 147, 18, 19, 148, 241, 50, 242, 190
49, 148, 19, 20, 149, 242, 51, 243, 192
50, 149, 20, 21, 150, 243, 52, 244, 194
51, 150, 21, 22, 151, 244, 53, 245, 196
52, 151, 22, 23, 152, 245, 54, 246, 198
53, 152, 23, 24, 153, 246, 55, 247, 200
54, 153, 24, 25, 154, 247, 56, 248, 202
55, 154, 25, 26, 155, 248, 57, 249, 204
56, 155, 26, 27, 156, 249, 58, 250, 206
57, 156, 27, 28, 157, 250, 59, 251, 208
58, 157, 28, 29, 158, 251, 60, 252, 210
59, 158, 29, 30, 159, 252, 61, 253, 212
60, 159, 30, 31, 160, 253, 62, 254, 214
61, 160, 31, 32, 161, 254, 63, 255, 216
62, 161, 32, 33, 162, 255, 64, 256, 218
63, 162, 33, 34, 163, 256, 65, 257, 220
64, 163, 34, 35, 164, 257, 66, 258, 222
65, 164, 35, 36, 165, 258, 67, 259, 224
66, 165, 36, 37, 166, 259, 68, 260, 226
67, 166, 37, 38, 167, 260, 69, 261, 228
68, 167, 38, 3, 71, 261, 70, 72, 230
*NSET, NSET=fixed_end
5, 6, 7
*NSET, NSET=far_face
71, 72, 73
*NSET, NSET=centerline
230, 71
*MATERIAL, NAME=cfrp
*ELASTIC, TYPE=ENGINEERING CONSTANTS
135000., 9000., 9000., 0.30, 0.30, 0.45, 4500., 4500.,
3000.,
*DENSITY
1.6E-9
*ORIENTATION, NAME=ori_p00, SYSTEM=RECTANGULAR
0., 1., 0., -1., 0., 0.
*ORIENTATION, NAME=ori_p90, SYSTEM=RECTANGULAR
1., 0., 0., 0., 1., 0.
*SHELL SECTION, COMPOSITE, ELSET=blade
0.5, , cfrp, ori_p00
0.5, , cfrp, ori_p90
0.5, , cfrp, ori_p90
0.5, , cfrp, ori_p00
*BOUNDARY
fixed_end, 1, 6
*STEP, NLGEOM, INC=8000
*STATIC
0.005, 1.0, 1.E-8, 0.02
*BOUNDARY
71, 1, 1, 0.0000000000
71, 2, 2, -0.1268756046
71, 3, 3, 4.3605547823
72, 1, 1, 0.0000000000
72, 2, 2, -0.1268756046
72, 3, 3, 4.3605547823
73, 1, 1, 0.0000000000
73, 2, 2, -0.1268756046
73, 3, 3, 4.3605547823
*NODE PRINT, NSET=far_face, TOTALS=YES
RF
*NODE PRINT, NSET=centerline
U
*END STEP
*STEP, NLGEOM, INC=8000
*STATIC
0.005, 1.0, 1.E-8, 0.02
*BOUNDARY
71, 1, 1, 0.0000000000
71, 2, 2, -0.5069229955
71, 3, 3, 8.7045163372
72, 1, 1, 0.0000000000
72, 2, 2, -0.5069229955
72, 3, 3, 8.7045163372
73, 1, 1, 0.0000000000
73, 2, 2, -0.5069229955
73, 3, 3, 8.7045163372
*NODE PRINT, NSET=far_face, TOTALS=YES
RF
*NODE PRINT, NSET=centerline
U
*END STEP
*STEP, NLGEOM, INC=8000
*STATIC
0.005, 1.0, 1.E-8, 0.02
*BOUNDARY
71, 1, 1, 0.0000000000
71, 2, 2, -1.1384070535
71, 3, 3, 13.0153756269
72, 1, 1, 0.0000000000
72, 2, 2, -1.1384070535
72, 3, 3, 13.0153756269
73, 1, 1, 0.0000000000
73, 2, 2, -1.1384070535
73, 3, 3, 13.0153756269
*NODE PRINT, NSET=far_face, TOTALS=YES
RF
*NODE PRINT, NSET=centerline
U
*END STEP
*STEP, NLGEOM, INC=8000
*STATIC
0.005, 1.0, 1.E-8, 0.02
*BOUNDARY
71, 1, 1, 0.0000000000
71, 2, 2, -2.0184463949
71, 3, 3, 17.2767915123
72, 1, 1, 0.0000000000
72, 2, 2, -2.0184463949
72, 3, 3, 17.2767915123
73, 1, 1, 0.0000000000
73, 2, 2, -2.0184463949
73, 3, 3, 17.2767915123
*NODE PRINT, NSET=far_face, TOTALS=YES
RF
*NODE PRINT, NSET=centerline
U
*END STEP
*STEP, NLGEOM, INC=8000
*STATIC
0.005, 1.0, 1.E-8, 0.02
*BOUNDARY
71, 1, 1, 0.0000000000
71, 2, 2, -3.1430290284
71, 3, 3, 21.4726735042
72, 1, 1, 0.0000000000
72, 2, 2, -3.1430290284
72, 3, 3, 21.4726735042
73, 1, 1, 0.0000000000
73, 2, 2, -3.1430290284
73, 3, 3, 21.4726735042
*NODE PRINT, NSET=far_face, TOTALS=YES
RF
*NODE PRINT, NSET=centerline
U
*END STEP
*STEP, NLGEOM, INC=8000
*STATIC
0.005, 1.0, 1.E-8, 0.02
*BOUNDARY
71, 1, 1, 0.0000000000
71, 2, 2, -4.5070341449
71, 3, 3, 25.5872630837
72, 1, 1, 0.0000000000
72, 2, 2, -4.5070341449
72, 3, 3, 25.5872630837
73, 1, 1, 0.0000000000
73, 2, 2, -4.5070341449
73, 3, 3, 25.5872630837
*NODE PRINT, NSET=far_face, TOTALS=YES
RF
*NODE PRINT, NSET=centerline
U
*END STEP
*STEP, NLGEOM, INC=8000
*STATIC
0.005, 1.0, 1.E-8, 0.02
*BOUNDARY
71, 1, 1, 0.0000000000
71, 2, 2, -6.1042599112
71, 3, 3, 29.6052131309
72, 1, 1, 0.0000000000
72, 2, 2, -6.1042599112
72, 3, 3, 29.6052131309
73, 1, 1, 0.0000000000
73, 2, 2, -6.1042599112
73, 3, 3, 29.6052131309
*NODE PRINT, NSET=far_face, TOTALS=YES
RF
*NODE PRINT, NSET=centerline
U
*END STEP
*STEP, NLGEOM, INC=8000
*STATIC
0.005, 1.0, 1.E-8, 0.02
*BOUNDARY
71, 1, 1, 0.0000000000
71, 2, 2, -7.9274571041
71, 3, 3, 33.5116650073
72, 1, 1, 0.0000000000
72, 2, 2, -7.9274571041
72, 3, 3, 33.5116650073
73, 1, 1, 0.0000000000
73, 2, 2, -7.9274571041
73, 3, 3, 33.5116650073
*NODE PRINT, NSET=far_face, TOTALS=YES
RF
*NODE PRINT, NSET=centerline
U
*END STEP
*STEP, NLGEOM, INC=8000
*STATIC
0.005, 1.0, 1.E-8, 0.02
*BOUNDARY
71, 1, 1, 0.0000000000
71, 2, 2, -9.9683683843
71, 3, 3, 37.2923228578
72, 1, 1, 0.0000000000
72, 2, 2, -9.9683683843
72, 3, 3, 37.2923228578
73, 1, 1, 0.0000000000
73, 2, 2, -9.9683683843
73, 3, 3, 37.2923228578
*NODE PRINT, NSET=far_face, TOTALS=YES
RF
*NODE PRINT, NSET=centerline
U
*END STEP
*STEP, NLGEOM, INC=8000
*STATIC
0.005, 1.0, 1.E-8, 0.02
*BOUNDARY
71, 1, 1, 0.0000000000
71, 2, 2, -12.2177729797
71, 3, 3, 40.9335247095
72, 1, 1, 0.0000000000
72, 2, 2, -12.2177729797
72, 3, 3, 40.9335247095
73, 1, 1, 0.0000000000
73, 2, 2, -12.2177729797
73, 3, 3, 40.9335247095
*NODE PRINT, NSET=far_face, TOTALS=YES
RF
*NODE PRINT, NSET=centerline
U
*END STEP
*STEP, NLGEOM, INC=8000
*STATIC
0.005, 1.0, 1.E-8, 0.02
*BOUNDARY
71, 1, 1, 0.0000000000
71, 2, 2, -14.6655365140
71, 3, 3, 44.4223099673
72, 1, 1, 0.0000000000
72, 2, 2, -14.6655365140
72, 3, 3, 44.4223099673
73, 1, 1, 0.0000000000
73, 2, 2, -14.6655365140
73, 3, 3, 44.4223099673
*NODE PRINT, NSET=far_face, TOTALS=YES
RF
*NODE PRINT, NSET=centerline
U
*END STEP
*STEP, NLGEOM, INC=8000
*STATIC
0.005, 1.0, 1.E-8, 0.02
*BOUNDARY
71, 1, 1, 0.0000000000
71, 2, 2, -17.3006656867
71, 3, 3, 47.7464829276
72, 1, 1, 0.0000000000
72, 2, 2, -17.3006656867
72, 3, 3, 47.7464829276
73, 1, 1, 0.0000000000
73, 2, 2, -17.3006656867
73, 3, 3, 47.7464829276
*NODE PRINT, NSET=far_face, TOTALS=YES
RF
*NODE PRINT, NSET=centerline
U
*END STEP
*STEP, NLGEOM, INC=8000
*STATIC
0.005, 1.0, 1.E-8, 0.02
*BOUNDARY
71, 1, 1, 0.0000000000
71, 2, 2, -20.1113674815
71, 3, 3, 50.8946719541
72, 1, 1, 0.0000000000
72, 2, 2, -20.1113674815
72, 3, 3, 50.8946719541
73, 1, 1, 0.0000000000
73, 2, 2, -20.1113674815
73, 3, 3, 50.8946719541
*NODE PRINT, NSET=far_face, TOTALS=YES
RF
*NODE PRINT, NSET=centerline
U
*END STEP
*STEP, NLGEOM, INC=8000
*STATIC
0.005, 1.0, 1.E-8, 0.02
*BOUNDARY
71, 1, 1, 0.0000000000
71, 2, 2, -23.0851125563
71, 3, 3, 53.8563839887
72, 1, 1, 0.0000000000
72, 2, 2, -23.0851125563
72, 3, 3, 53.8563839887
73, 1, 1, 0.0000000000
73, 2, 2, -23.0851125563
73, 3, 3, 53.8563839887
*NODE PRINT, NSET=far_face, TOTALS=YES
RF
*NODE PRINT, NSET=centerline
U
*END STEP
*STEP, NLGEOM, INC=8000
*STATIC
0.005, 1.0, 1.E-8, 0.02
*BOUNDARY
71, 1, 1, 0.0000000000
71, 2, 2, -26.2087024413
71, 3, 3, 56.6220540948
72, 1, 1, 0.0000000000
72, 2, 2, -26.2087024413
72, 3, 3, 56.6220540948
73, 1, 1, 0.0000000000
73, 2, 2, -26.2087024413
73, 3, 3, 56.6220540948
*NODE PRINT, NSET=far_face, TOTALS=YES
RF
*NODE PRINT, NSET=centerline
U
*END STEP
*STEP, NLGEOM, INC=8000
*STATIC
0.005, 1.0, 1.E-8, 0.02
*BOUNDARY
71, 1, 1, 0.0000000000
71, 2, 2, -29.4683401508
71, 3, 3, 59.1830897658
72, 1, 1, 0.0000000000
72, 2, 2, -29.4683401508
72, 3, 3, 59.1830897658
73, 1, 1, 0.0000000000
73, 2, 2, -29.4683401508
73, 3, 3, 59.1830897658
*NODE PRINT, NSET=far_face, TOTALS=YES
RF
*NODE PRINT, NSET=centerline
U
*END STEP
*STEP, NLGEOM, INC=8000
*STATIC
0.005, 1.0, 1.E-8, 0.02
*BOUNDARY
71, 1, 1, 0.0000000000
71, 2, 2, -32.8497037953
71, 3, 3, 61.5319097568
72, 1, 1, 0.0000000000
72, 2, 2, -32.8497037953
72, 3, 3, 61.5319097568
73, 1, 1, 0.0000000000
73, 2, 2, -32.8497037953
73, 3, 3, 61.5319097568
*NODE PRINT, NSET=far_face, TOTALS=YES
RF
*NODE PRINT, NSET=centerline
U
*END STEP
*STEP, NLGEOM, INC=8000
*STATIC
0.005, 1.0, 1.E-8, 0.02
*BOUNDARY
71, 1, 1, 0.0000000000
71, 2, 2, -36.3380227632
71, 3, 3, 63.6619772368
72, 1, 1, 0.0000000000
72, 2, 2, -36.3380227632
72, 3, 3, 63.6619772368
73, 1, 1, 0.0000000000
73, 2, 2, -36.3380227632
73, 3, 3, 63.6619772368
*NODE PRINT, NSET=far_face, TOTALS=YES
RF
*NODE PRINT, NSET=centerline
U
*END STEP
*STEP, NLGEOM, INC=8000
*STATIC
0.005, 1.0, 1.E-8, 0.02
*BOUNDARY
71, 1, 1, 0.0000000000
71, 2, 2, -39.9181560274
71, 3, 3, 65.5678270872
72, 1, 1, 0.0000000000
72, 2, 2, -39.9181560274
72, 3, 3, 65.5678270872
73, 1, 1, 0.0000000000
73, 2, 2, -39.9181560274
73, 3, 3, 65.5678270872
*NODE PRINT, NSET=far_face, TOTALS=YES
RF
*NODE PRINT, NSET=centerline
U
*END STEP
*STEP, NLGEOM, INC=8000
*STATIC
0.005, 1.0, 1.E-8, 0.02
*BOUNDARY
71, 1, 1, 0.0000000000
71, 2, 2, -43.5746721206
71, 3, 3, 67.2450872135
72, 1, 1, 0.0000000000
72, 2, 2, -43.5746721206
72, 3, 3, 67.2450872135
73, 1, 1, 0.0000000000
73, 2, 2, -43.5746721206
73, 3, 3, 67.2450872135
*NODE PRINT, NSET=far_face, TOTALS=YES
RF
*NODE PRINT, NSET=centerline
U
*END STEP
*STEP, NLGEOM, INC=8000
*STATIC
0.005, 1.0, 1.E-8, 0.02
*BOUNDARY
71, 1, 1, 0.0000000000
71, 2, 2, -47.2919303152
71, 3, 3, 68.6904937667
72, 1, 1, 0.0000000000
72, 2, 2, -47.2919303152
72, 3, 3, 68.6904937667
73, 1, 1, 0.0000000000
73, 2, 2, -47.2919303152
73, 3, 3, 68.6904937667
*NODE PRINT, NSET=far_face, TOTALS=YES
RF
*NODE PRINT, NSET=centerline
U
*END STEP
*STEP, NLGEOM, INC=8000
*STATIC
0.005, 1.0, 1.E-8, 0.02
*BOUNDARY
71, 1, 1, 0.0000000000
71, 2, 2, -51.0541625358
71, 3, 3, 69.9019002128
72, 1, 1, 0.0000000000
72, 2, 2, -51.0541625358
72, 3, 3, 69.9019002128
73, 1, 1, 0.0000000000
73, 2, 2, -51.0541625358
73, 3, 3, 69.9019002128
*NODE PRINT, NSET=far_face, TOTALS=YES
RF
*NODE PRINT, NSET=centerline
U
*END STEP
*STEP, NLGEOM, INC=8000
*STATIC
0.005, 1.0, 1.E-8, 0.02
*BOUNDARY
71, 1, 1, 0.0000000000
71, 2, 2, -54.8455555330
71, 3, 3, 70.8782802226
72, 1, 1, 0.0000000000
72, 2, 2, -54.8455555330
72, 3, 3, 70.8782802226
73, 1, 1, 0.0000000000
73, 2, 2, -54.8455555330
73, 3, 3, 70.8782802226
*NODE PRINT, NSET=far_face, TOTALS=YES
RF
*NODE PRINT, NSET=centerline
U
*END STEP
*STEP, NLGEOM, INC=8000
*STATIC
0.005, 1.0, 1.E-8, 0.02
*BOUNDARY
71, 1, 1, 0.0000000000
71, 2, 2, -58.6503328434
71, 3, 3, 71.6197243914
72, 1, 1, 0.0000000000
72, 2, 2, -58.6503328434
72, 3, 3, 71.6197243914
73, 1, 1, 0.0000000000
73, 2, 2, -58.6503328434
73, 3, 3, 71.6197243914
*NODE PRINT, NSET=far_face, TOTALS=YES
RF
*NODE PRINT, NSET=centerline
U
*END STEP
*STEP, NLGEOM, INC=8000
*STATIC
0.005, 1.0, 1.E-8, 0.02
*BOUNDARY
71, 1, 1, 0.0000000000
71, 2, 2, -62.4528360662
71, 3, 3, 72.1274308353
72, 1, 1, 0.0000000000
72, 2, 2, -62.4528360662
72, 3, 3, 72.1274308353
73, 1, 1, 0.0000000000
73, 2, 2, -62.4528360662
73, 3, 3, 72.1274308353
*NODE PRINT, NSET=far_face, TOTALS=YES
RF
*NODE PRINT, NSET=centerline
U
*END STEP
*STEP, NLGEOM, INC=8000
*STATIC
0.005, 1.0, 1.E-8, 0.02
*BOUNDARY
71, 1, 1, 0.0000000000
71, 2, 2, -66.2376049922
71, 3, 3, 72.4036897472
72, 1, 1, 0.0000000000
72, 2, 2, -66.2376049922
72, 3, 3, 72.4036897472
73, 1, 1, 0.0000000000
73, 2, 2, -66.2376049922
73, 3, 3, 72.4036897472
*NODE PRINT, NSET=far_face, TOTALS=YES
RF
*NODE PRINT, NSET=centerline
U
*END STEP
*STEP, NLGEOM, INC=8000
*STATIC
0.005, 1.0, 1.E-8, 0.02
*BOUNDARY
71, 1, 1, 0.0000000000
71, 2, 2, -69.9894561281
71, 3, 3, 72.4518620297
72, 1, 1, 0.0000000000
72, 2, 2, -69.9894561281
72, 3, 3, 72.4518620297
73, 1, 1, 0.0000000000
73, 2, 2, -69.9894561281
73, 3, 3, 72.4518620297
*NODE PRINT, NSET=far_face, TOTALS=YES
RF
*NODE PRINT, NSET=centerline
U
*END STEP
*STEP, NLGEOM, INC=8000
*STATIC
0.005, 1.0, 1.E-8, 0.02
*BOUNDARY
71, 1, 1, 0.0000000000
71, 2, 2, -73.6935591726
71, 3, 3, 72.2763521595
72, 1, 1, 0.0000000000
72, 2, 2, -73.6935591726
72, 3, 3, 72.2763521595
73, 1, 1, 0.0000000000
73, 2, 2, -73.6935591726
73, 3, 3, 72.2763521595
*NODE PRINT, NSET=far_face, TOTALS=YES
RF
*NODE PRINT, NSET=centerline
U
*END STEP
*STEP, NLGEOM, INC=8000
*STATIC
0.005, 1.0, 1.E-8, 0.02
*BOUNDARY
71, 1, 1, 0.0000000000
71, 2, 2, -77.3355110131
71, 3, 3, 71.8825754692
72, 1, 1, 0.0000000000
72, 2, 2, -77.3355110131
72, 3, 3, 71.8825754692
73, 1, 1, 0.0000000000
73, 2, 2, -77.3355110131
73, 3, 3, 71.8825754692
*NODE PRINT, NSET=far_face, TOTALS=YES
RF
*NODE PRINT, NSET=centerline
U
*END STEP
*STEP, NLGEOM, INC=8000
*STATIC
0.005, 1.0, 1.E-8, 0.02
*BOUNDARY
71, 1, 1, 0.0000000000
71, 2, 2, -80.9014068290
71, 3, 3, 71.2769200674
72, 1, 1, 0.0000000000
72, 2, 2, -80.9014068290
72, 3, 3, 71.2769200674
73, 1, 1, 0.0000000000
73, 2, 2, -80.9014068290
73, 3, 3, 71.2769200674
*NODE PRINT, NSET=far_face, TOTALS=YES
RF
*NODE PRINT, NSET=centerline
U
*END STEP
*STEP, NLGEOM, INC=8000
*STATIC
0.005, 1.0, 1.E-8, 0.02
*BOUNDARY
71, 1, 1, 0.0000000000
71, 2, 2, -84.3779079078
71, 3, 3, 70.4667036452
72, 1, 1, 0.0000000000
72, 2, 2, -84.3779079078
72, 3, 3, 70.4667036452
73, 1, 1, 0.0000000000
73, 2, 2, -84.3779079078
73, 3, 3, 70.4667036452
*NODE PRINT, NSET=far_face, TOTALS=YES
RF
*NODE PRINT, NSET=centerline
U
*END STEP
*STEP, NLGEOM, INC=8000
*STATIC
0.005, 1.0, 1.E-8, 0.02
*BOUNDARY
71, 1, 1, 0.0000000000
71, 2, 2, -87.7523057994
71, 3, 3, 69.4601254523
72, 1, 1, 0.0000000000
72, 2, 2, -87.7523057994
72, 3, 3, 69.4601254523
73, 1, 1, 0.0000000000
73, 2, 2, -87.7523057994
73, 3, 3, 69.4601254523
*NODE PRINT, NSET=far_face, TOTALS=YES
RF
*NODE PRINT, NSET=centerline
U
*END STEP
*STEP, NLGEOM, INC=8000
*STATIC
0.005, 1.0, 1.E-8, 0.02
*BOUNDARY
71, 1, 1, 0.0000000000
71, 2, 2, -91.0125824594
71, 3, 3, 68.2662137467
72, 1, 1, 0.0000000000
72, 2, 2, -91.0125824594
72, 3, 3, 68.2662137467
73, 1, 1, 0.0000000000
73, 2, 2, -91.0125824594
73, 3, 3, 68.2662137467
*NODE PRINT, NSET=far_face, TOTALS=YES
RF
*NODE PRINT, NSET=centerline
U
*END STEP
*STEP, NLGEOM, INC=8000
*STATIC
0.005, 1.0, 1.E-8, 0.02
*BOUNDARY
71, 1, 1, 0.0000000000
71, 2, 2, -94.1474660586
71, 3, 3, 66.8947690544
72, 1, 1, 0.0000000000
72, 2, 2, -94.1474660586
72, 3, 3, 66.8947690544
73, 1, 1, 0.0000000000
73, 2, 2, -94.1474660586
73, 3, 3, 66.8947690544
*NODE PRINT, NSET=far_face, TOTALS=YES
RF
*NODE PRINT, NSET=centerline
U
*END STEP
*STEP, NLGEOM, INC=8000
*STATIC
0.005, 1.0, 1.E-8, 0.02
*BOUNDARY
71, 1, 1, 0.0000000000
71, 2, 2, -97.1464821601
71, 3, 3, 65.3563035926
72, 1, 1, 0.0000000000
72, 2, 2, -97.1464821601
72, 3, 3, 65.3563035926
73, 1, 1, 0.0000000000
73, 2, 2, -97.1464821601
73, 3, 3, 65.3563035926
*NODE PRINT, NSET=far_face, TOTALS=YES
RF
*NODE PRINT, NSET=centerline
U
*END STEP
*STEP, NLGEOM, INC=8000
*STATIC
0.005, 1.0, 1.E-8, 0.02
*BOUNDARY
71, 1, 1, 0.0000000000
71, 2, 2, -100.0000000000
71, 3, 3, 63.6619772368
72, 1, 1, 0.0000000000
72, 2, 2, -100.0000000000
72, 3, 3, 63.6619772368
73, 1, 1, 0.0000000000
73, 2, 2, -100.0000000000
73, 3, 3, 63.6619772368
*NODE PRINT, NSET=far_face, TOTALS=YES
RF
*NODE PRINT, NSET=centerline
U
*END STEP
