** x=width(20) y=length z=normal
*NODE, NSET=all_nodes
1, 0.00000000, 0.00000000, 0.00000000
2, 10.00000000, 0.00000000, 0.00000000
3, 20.00000000, 0.00000000, 0.00000000
4, 0.00000000, 6.25000000, 0.00000000
5, 10.00000000, 6.25000000, 0.00000000
6, 20.00000000, 6.25000000, 0.00000000
7, 0.00000000, 12.50000000, 0.00000000
8, 10.00000000, 12.50000000, 0.00000000
9, 20.00000000, 12.50000000, 0.00000000
10, 0.00000000, 18.75000000, 0.00000000
11, 10.00000000, 18.75000000, 0.00000000
12, 20.00000000, 18.75000000, 0.00000000
13, 0.00000000, 25.00000000, 0.00000000
14, 10.00000000, 25.00000000, 0.00000000
15, 20.00000000, 25.00000000, 0.00000000
16, 0.00000000, 31.25000000, 0.00000000
17, 10.00000000, 31.25000000, 0.00000000
18, 20.00000000, 31.25000000, 0.00000000
19, 0.00000000, 37.50000000, 0.00000000
20, 10.00000000, 37.50000000, 0.00000000
21, 20.00000000, 37.50000000, 0.00000000
22, 0.00000000, 43.75000000, 0.00000000
23, 10.00000000, 43.75000000, 0.00000000
24, 20.00000000, 43.75000000, 0.00000000
25, 0.00000000, 50.00000000, 0.00000000
26, 10.00000000, 50.00000000, 0.00000000
27, 20.00000000, 50.00000000, 0.00000000
28, 0.00000000, 56.25000000, 0.00000000
29, 10.00000000, 56.25000000, 0.00000000
30, 20.00000000, 56.25000000, 0.00000000
31, 0.00000000, 62.50000000, 0.00000000
32, 10.00000000, 62.50000000, 0.00000000
33, 20.00000000, 62.50000000, 0.00000000
34, 0.00000000, 68.75000000, 0.00000000
35, 10.00000000, 68.75000000, 0.00000000
36, 20.00000000, 68.75000000, 0.00000000
37, 0.00000000, 75.00000000, 0.00000000
38, 10.00000000, 75.00000000, 0.00000000
39, 20.00000000, 75.00000000, 0.00000000
40, 0.00000000, 81.25000000, 0.00000000
41, 10.00000000, 81.25000000, 0.00000000
42, 20.00000000, 81.25000000, 0.00000000
43, 0.00000000, 87.50000000, 0.00000000
44, 10.00000000, 87.50000000, 0.00000000
45, 20.00000000, 87.50000000, 0.00000000
46, 0.00000000, 93.75000000, 0.00000000
47, 10.00000000, 93.75000000, 0.00000000
48, 20.00000000, 93.75000000, 0.00000000
49, 0.00000000, 100.00000000, 0.00000000
50, 10.00000000, 100.00000000, 0.00000000
51, 20.00000000, 100.00000000, 0.00000000
52, 0.00000000, 3.12500000, 0.00000000
53, 20.00000000, 3.12500000, 0.00000000
54, 0.00000000, 9.37500000, 0.00000000
55, 20.00000000, 9.37500000, 0.00000000
56, 0.00000000, 15.62500000, 0.00000000
57, 20.00000000, 15.62500000, 0.00000000
58, 0.00000000, 21.87500000, 0.00000000
59, 20.00000000, 21.87500000, 0.00000000
60, 0.00000000, 28.12500000, 0.00000000
61, 20.00000000, 28.12500000, 0.00000000
62, 0.00000000, 34.37500000, 0.00000000
63, 20.00000000, 34.37500000, 0.00000000
64, 0.00000000, 40.62500000, 0.00000000
65, 20.00000000, 40.62500000, 0.00000000
66, 0.00000000, 46.87500000, 0.00000000
67, 20.00000000, 46.87500000, 0.00000000
68, 0.00000000, 53.12500000, 0.00000000
69, 20.00000000, 53.12500000, 0.00000000
70, 0.00000000, 59.37500000, 0.00000000
71, 20.00000000, 59.37500000, 0.00000000
72, 0.00000000, 65.62500000, 0.00000000
73, 20.00000000, 65.62500000, 0.00000000
74, 0.00000000, 71.87500000, 0.00000000
75, 20.00000000, 71.87500000, 0.00000000
76, 0.00000000, 78.12500000, 0.00000000
77, 20.00000000, 78.12500000, 0.00000000
78, 0.00000000, 84.37500000, 0.00000000
79, 20.00000000, 84.37500000, 0.00000000
80, 0.00000000, 90.62500000, 0.00000000
81, 20.00000000, 90.62500000, 0.00000000
82, 0.00000000, 96.87500000, 0.00000000
83, 20.00000000, 96.87500000, 0.00000000
*ELEMENT, TYPE=S8R, ELSET=blade
1, 1, 3, 6, 4, 2, 53, 5, 52
2, 4, 6, 9, 7, 5, 55, 8, 54
3, 7, 9, 12, 10, 8, 57, 11, 56
4, 10, 12, 15, 13, 11, 59, 14, 58
5, 13, 15, 18, 16, 14, 61, 17, 60
6, 16, 18, 21, 19, 17, 63, 20, 62
7, 19, 21, 24, 22, 20, 65, 23, 64
8, 22, 24, 27, 25, 23, 67, 26, 66
9, 25, 27, 30, 28, 26, 69, 29, 68
10, 28, 30, 33, 31, 29, 71, 32, 70
11, 31, 33, 36, 34, 32, 73, 35, 72
12, 34, 36, 39, 37, 35, 75, 38, 74
13, 37, 39, 42, 40, 38, 77, 41, 76
14, 40, 42, 45, 43, 41, 79, 44, 78
15, 43, 45, 48, 46, 44, 81, 47, 80
16, 46, 48, 51, 49, 47, 83, 50, 82
*NSET, NSET=fixed_end
1, 2, 3
*NSET, NSET=far_face
49, 50, 51
*NSET, NSET=centerline
26, 47, 50
*ELSET, ELSET=root_el
1
*MATERIAL, NAME=cfrp
*ELASTIC, TYPE=ENGINEERING CONSTANTS
135000., 9000., 9000., 0.30, 0.30, 0.45, 4500., 4500.,
3000.,
*DENSITY
1.6E-9
*ORIENTATION, NAME=ori_p00, SYSTEM=RECTANGULAR
0., 1., 0., -1., 0., 0.
*ORIENTATION, NAME=ori_p90, SYSTEM=RECTANGULAR
1., 0., 0., 0., 1., 0.
*SHELL SECTION, COMPOSITE, ELSET=blade
0.25, , cfrp, ori_p00
0.25, , cfrp, ori_p90
0.25, , cfrp, ori_p90
0.25, , cfrp, ori_p00
*BOUNDARY
fixed_end, 1, 6
** tip_force_disp: total Fz=80 N on far_face
*STEP, NLGEOM, INC=5000
*STATIC
0.01, 1.0, 1.E-6, 0.05
*CLOAD
49, 3, 26.6666666667
50, 3, 26.6666666667
51, 3, 26.6666666667
*NODE PRINT, NSET=centerline
U
*NODE PRINT, NSET=far_face, TOTALS=YES
RF
*NODE PRINT, NSET=fixed_end, TOTALS=YES
RF
*END STEP
