** smoke_cantilever mesh: 100 x 20 mm strip, 32 S8R elements along the length,
** 1 across the width. Axes: x = width (20), y = length (100, the long axis),
** z = shell normal (+z).
**
** Structured quad8 grid: corner rows every 3.125 mm carry 3 nodes
** (x = 0, 10, 20), mid-side rows offset by 1.5625 mm carry 2 (x = 0, 20).
** Same node-ordering convention as cases/cantilever_ansys/cantilever_89deg.inp.
**
** 32 along the length is where this load case converges -- see the mesh study in
** README.md. Do not transplant the convergence table from cantilever_ansys: that
** one is a pure end moment, where curvature is constant and 8 elements is
** already exact. Under a tip load 8 elements is 0.8% off on [90/0]s.
** Refining across the width instead moves the answer by 0.02%, so one element
** across is enough: the quad8 mid-side node carries the anticlastic curvature.
**
** Hand-generated placeholder. geometry.py is the next module in the build order
** and will emit this; the grid rule above is what it has to reproduce. No
** material, section or step here -- layup.py and deck.py add those, which is the
** point of the case.
*NODE, NSET=all_nodes
1, 0.00000000, 0.00000000, 0.00000000
2, 10.00000000, 0.00000000, 0.00000000
3, 20.00000000, 0.00000000, 0.00000000
4, 0.00000000, 3.12500000, 0.00000000
5, 10.00000000, 3.12500000, 0.00000000
6, 20.00000000, 3.12500000, 0.00000000
7, 0.00000000, 6.25000000, 0.00000000
8, 10.00000000, 6.25000000, 0.00000000
9, 20.00000000, 6.25000000, 0.00000000
10, 0.00000000, 9.37500000, 0.00000000
11, 10.00000000, 9.37500000, 0.00000000
12, 20.00000000, 9.37500000, 0.00000000
13, 0.00000000, 12.50000000, 0.00000000
14, 10.00000000, 12.50000000, 0.00000000
15, 20.00000000, 12.50000000, 0.00000000
16, 0.00000000, 15.62500000, 0.00000000
17, 10.00000000, 15.62500000, 0.00000000
18, 20.00000000, 15.62500000, 0.00000000
19, 0.00000000, 18.75000000, 0.00000000
20, 10.00000000, 18.75000000, 0.00000000
21, 20.00000000, 18.75000000, 0.00000000
22, 0.00000000, 21.87500000, 0.00000000
23, 10.00000000, 21.87500000, 0.00000000
24, 20.00000000, 21.87500000, 0.00000000
25, 0.00000000, 25.00000000, 0.00000000
26, 10.00000000, 25.00000000, 0.00000000
27, 20.00000000, 25.00000000, 0.00000000
28, 0.00000000, 28.12500000, 0.00000000
29, 10.00000000, 28.12500000, 0.00000000
30, 20.00000000, 28.12500000, 0.00000000
31, 0.00000000, 31.25000000, 0.00000000
32, 10.00000000, 31.25000000, 0.00000000
33, 20.00000000, 31.25000000, 0.00000000
34, 0.00000000, 34.37500000, 0.00000000
35, 10.00000000, 34.37500000, 0.00000000
36, 20.00000000, 34.37500000, 0.00000000
37, 0.00000000, 37.50000000, 0.00000000
38, 10.00000000, 37.50000000, 0.00000000
39, 20.00000000, 37.50000000, 0.00000000
40, 0.00000000, 40.62500000, 0.00000000
41, 10.00000000, 40.62500000, 0.00000000
42, 20.00000000, 40.62500000, 0.00000000
43, 0.00000000, 43.75000000, 0.00000000
44, 10.00000000, 43.75000000, 0.00000000
45, 20.00000000, 43.75000000, 0.00000000
46, 0.00000000, 46.87500000, 0.00000000
47, 10.00000000, 46.87500000, 0.00000000
48, 20.00000000, 46.87500000, 0.00000000
49, 0.00000000, 50.00000000, 0.00000000
50, 10.00000000, 50.00000000, 0.00000000
51, 20.00000000, 50.00000000, 0.00000000
52, 0.00000000, 53.12500000, 0.00000000
53, 10.00000000, 53.12500000, 0.00000000
54, 20.00000000, 53.12500000, 0.00000000
55, 0.00000000, 56.25000000, 0.00000000
56, 10.00000000, 56.25000000, 0.00000000
57, 20.00000000, 56.25000000, 0.00000000
58, 0.00000000, 59.37500000, 0.00000000
59, 10.00000000, 59.37500000, 0.00000000
60, 20.00000000, 59.37500000, 0.00000000
61, 0.00000000, 62.50000000, 0.00000000
62, 10.00000000, 62.50000000, 0.00000000
63, 20.00000000, 62.50000000, 0.00000000
64, 0.00000000, 65.62500000, 0.00000000
65, 10.00000000, 65.62500000, 0.00000000
66, 20.00000000, 65.62500000, 0.00000000
67, 0.00000000, 68.75000000, 0.00000000
68, 10.00000000, 68.75000000, 0.00000000
69, 20.00000000, 68.75000000, 0.00000000
70, 0.00000000, 71.87500000, 0.00000000
71, 10.00000000, 71.87500000, 0.00000000
72, 20.00000000, 71.87500000, 0.00000000
73, 0.00000000, 75.00000000, 0.00000000
74, 10.00000000, 75.00000000, 0.00000000
75, 20.00000000, 75.00000000, 0.00000000
76, 0.00000000, 78.12500000, 0.00000000
77, 10.00000000, 78.12500000, 0.00000000
78, 20.00000000, 78.12500000, 0.00000000
79, 0.00000000, 81.25000000, 0.00000000
80, 10.00000000, 81.25000000, 0.00000000
81, 20.00000000, 81.25000000, 0.00000000
82, 0.00000000, 84.37500000, 0.00000000
83, 10.00000000, 84.37500000, 0.00000000
84, 20.00000000, 84.37500000, 0.00000000
85, 0.00000000, 87.50000000, 0.00000000
86, 10.00000000, 87.50000000, 0.00000000
87, 20.00000000, 87.50000000, 0.00000000
88, 0.00000000, 90.62500000, 0.00000000
89, 10.00000000, 90.62500000, 0.00000000
90, 20.00000000, 90.62500000, 0.00000000
91, 0.00000000, 93.75000000, 0.00000000
92, 10.00000000, 93.75000000, 0.00000000
93, 20.00000000, 93.75000000, 0.00000000
94, 0.00000000, 96.87500000, 0.00000000
95, 10.00000000, 96.87500000, 0.00000000
96, 20.00000000, 96.87500000, 0.00000000
97, 0.00000000, 100.00000000, 0.00000000
98, 10.00000000, 100.00000000, 0.00000000
99, 20.00000000, 100.00000000, 0.00000000
100, 0.00000000, 1.56250000, 0.00000000
101, 20.00000000, 1.56250000, 0.00000000
102, 0.00000000, 4.68750000, 0.00000000
103, 20.00000000, 4.68750000, 0.00000000
104, 0.00000000, 7.81250000, 0.00000000
105, 20.00000000, 7.81250000, 0.00000000
106, 0.00000000, 10.93750000, 0.00000000
107, 20.00000000, 10.93750000, 0.00000000
108, 0.00000000, 14.06250000, 0.00000000
109, 20.00000000, 14.06250000, 0.00000000
110, 0.00000000, 17.18750000, 0.00000000
111, 20.00000000, 17.18750000, 0.00000000
112, 0.00000000, 20.31250000, 0.00000000
113, 20.00000000, 20.31250000, 0.00000000
114, 0.00000000, 23.43750000, 0.00000000
115, 20.00000000, 23.43750000, 0.00000000
116, 0.00000000, 26.56250000, 0.00000000
117, 20.00000000, 26.56250000, 0.00000000
118, 0.00000000, 29.68750000, 0.00000000
119, 20.00000000, 29.68750000, 0.00000000
120, 0.00000000, 32.81250000, 0.00000000
121, 20.00000000, 32.81250000, 0.00000000
122, 0.00000000, 35.93750000, 0.00000000
123, 20.00000000, 35.93750000, 0.00000000
124, 0.00000000, 39.06250000, 0.00000000
125, 20.00000000, 39.06250000, 0.00000000
126, 0.00000000, 42.18750000, 0.00000000
127, 20.00000000, 42.18750000, 0.00000000
128, 0.00000000, 45.31250000, 0.00000000
129, 20.00000000, 45.31250000, 0.00000000
130, 0.00000000, 48.43750000, 0.00000000
131, 20.00000000, 48.43750000, 0.00000000
132, 0.00000000, 51.56250000, 0.00000000
133, 20.00000000, 51.56250000, 0.00000000
134, 0.00000000, 54.68750000, 0.00000000
135, 20.00000000, 54.68750000, 0.00000000
136, 0.00000000, 57.81250000, 0.00000000
137, 20.00000000, 57.81250000, 0.00000000
138, 0.00000000, 60.93750000, 0.00000000
139, 20.00000000, 60.93750000, 0.00000000
140, 0.00000000, 64.06250000, 0.00000000
141, 20.00000000, 64.06250000, 0.00000000
142, 0.00000000, 67.18750000, 0.00000000
143, 20.00000000, 67.18750000, 0.00000000
144, 0.00000000, 70.31250000, 0.00000000
145, 20.00000000, 70.31250000, 0.00000000
146, 0.00000000, 73.43750000, 0.00000000
147, 20.00000000, 73.43750000, 0.00000000
148, 0.00000000, 76.56250000, 0.00000000
149, 20.00000000, 76.56250000, 0.00000000
150, 0.00000000, 79.68750000, 0.00000000
151, 20.00000000, 79.68750000, 0.00000000
152, 0.00000000, 82.81250000, 0.00000000
153, 20.00000000, 82.81250000, 0.00000000
154, 0.00000000, 85.93750000, 0.00000000
155, 20.00000000, 85.93750000, 0.00000000
156, 0.00000000, 89.06250000, 0.00000000
157, 20.00000000, 89.06250000, 0.00000000
158, 0.00000000, 92.18750000, 0.00000000
159, 20.00000000, 92.18750000, 0.00000000
160, 0.00000000, 95.31250000, 0.00000000
161, 20.00000000, 95.31250000, 0.00000000
162, 0.00000000, 98.43750000, 0.00000000
163, 20.00000000, 98.43750000, 0.00000000
*ELEMENT, TYPE=S8R, ELSET=blade
1, 1, 3, 6, 4, 2, 101, 5, 100
2, 4, 6, 9, 7, 5, 103, 8, 102
3, 7, 9, 12, 10, 8, 105, 11, 104
4, 10, 12, 15, 13, 11, 107, 14, 106
5, 13, 15, 18, 16, 14, 109, 17, 108
6, 16, 18, 21, 19, 17, 111, 20, 110
7, 19, 21, 24, 22, 20, 113, 23, 112
8, 22, 24, 27, 25, 23, 115, 26, 114
9, 25, 27, 30, 28, 26, 117, 29, 116
10, 28, 30, 33, 31, 29, 119, 32, 118
11, 31, 33, 36, 34, 32, 121, 35, 120
12, 34, 36, 39, 37, 35, 123, 38, 122
13, 37, 39, 42, 40, 38, 125, 41, 124
14, 40, 42, 45, 43, 41, 127, 44, 126
15, 43, 45, 48, 46, 44, 129, 47, 128
16, 46, 48, 51, 49, 47, 131, 50, 130
17, 49, 51, 54, 52, 50, 133, 53, 132
18, 52, 54, 57, 55, 53, 135, 56, 134
19, 55, 57, 60, 58, 56, 137, 59, 136
20, 58, 60, 63, 61, 59, 139, 62, 138
21, 61, 63, 66, 64, 62, 141, 65, 140
22, 64, 66, 69, 67, 65, 143, 68, 142
23, 67, 69, 72, 70, 68, 145, 71, 144
24, 70, 72, 75, 73, 71, 147, 74, 146
25, 73, 75, 78, 76, 74, 149, 77, 148
26, 76, 78, 81, 79, 77, 151, 80, 150
27, 79, 81, 84, 82, 80, 153, 83, 152
28, 82, 84, 87, 85, 83, 155, 86, 154
29, 85, 87, 90, 88, 86, 157, 89, 156
30, 88, 90, 93, 91, 89, 159, 92, 158
31, 91, 93, 96, 94, 92, 161, 95, 160
32, 94, 96, 99, 97, 95, 163, 98, 162
*NSET, NSET=fixed_end
1, 2, 3
*NSET, NSET=far_face
97, 98, 99
*ELSET, ELSET=root_el
1
